43 43
16 27
13 28
18 13
1 41
12 22
10 33
7 5
9 18
1 17
3 35
6 42
15 34
5 23
21 8
14 40
1 26
4 32
11 25
5 10
4 3
11 39
7 9
9 43
8 14
8 21
2 31
20 1
18 30
19 29
6 4
20 2
17 24
13 16
12 19
15 20
19 12
17 38
14 7
2 6
3 11
16 37
10 36
21 15
